benchmark/results/graph__10-1000-0.10-02_19/graph__10-1000-0.10-02_19_Quinton_Benders_sub.lp
\ This file has been generated by DOcplex
\ ENCODING=ISO-8859-1
\Problem name: Quinton Benders_dual_sub

Minimize
 obj: 0.001464128843 pi_nr_a0 + 0.001623376623 pi_nr_a1
      + 0.001519756839 pi_nr_a2 + 0.001150747986 pi_nr_a3
      + 0.001191895113 pi_nr_a4 + 0.001453488372 pi_nr_a5
      + 0.000854700855 pi_nr_a6 + 0.001084598698 pi_nr_a7
      + 0.001742160279 pi_nr_a8 + 0.001490312966 pi_nr_a9 + pi_p_a1_a0
      + pi_p_a5_a8 + pi_p_a6_a8 + pi_p_a1_a7 + pi_p_a1_a1 + pi_d_a1_a0_proc_0
      + pi_d_a2_a0_proc_0 + pi_d_a3_a0_proc_0 + 2466 pi_d_a0_a4_proc_0
      + pi_d_a4_a0_proc_0 + pi_d_a5_a0_proc_0 + pi_d_a8_a0_proc_0
      + pi_d_a9_a0_proc_0 + pi_d_a1_a2_proc_0 + pi_d_a1_a3_proc_0
      + 2467 pi_d_a1_a4_proc_0 + pi_d_a1_a5_proc_0 + pi_d_a1_a8_proc_0
      + pi_d_a1_a9_proc_0 + 2467 pi_d_a2_a3_proc_1 + pi_d_a2_a3_proc_0
      + 2466 pi_d_a3_a2_proc_1 + 2467 pi_d_a2_a4_proc_1 + 2467 pi_d_a2_a4_proc_0
      + 2467 pi_d_a2_a5_proc_1 + pi_d_a2_a5_proc_0 + 2466 pi_d_a5_a2_proc_1
      + 2467 pi_d_a2_a6_proc_1 + 2467 pi_d_a2_a7_proc_1 + 2467 pi_d_a2_a8_proc_1
      + pi_d_a2_a8_proc_0 + 2466 pi_d_a8_a2_proc_1 + 2467 pi_d_a2_a9_proc_1
      + pi_d_a2_a9_proc_0 + 2466 pi_d_a9_a2_proc_1 + pi_d_a3_a4_proc_1
      + pi_d_a3_a4_proc_0 + 2466 pi_d_a4_a3_proc_1 + 2466 pi_d_a4_a3_proc_0
      + 2466 pi_d_a3_a5_proc_1 + 2467 pi_d_a5_a3_proc_1 + pi_d_a5_a3_proc_0
      + pi_d_a3_a6_proc_1 + 2466 pi_d_a6_a3_proc_1 + pi_d_a3_a7_proc_1
      + 2466 pi_d_a7_a3_proc_1 + 2467 pi_d_a3_a8_proc_1 + pi_d_a3_a8_proc_0
      + 2466 pi_d_a8_a3_proc_1 + 2467 pi_d_a3_a9_proc_1 + pi_d_a3_a9_proc_0
      + 2466 pi_d_a9_a3_proc_1 + 2465 pi_d_a4_a5_proc_1 + 2465 pi_d_a4_a5_proc_0
      + 2 pi_d_a5_a4_proc_1 + 2 pi_d_a5_a4_proc_0 + pi_d_a6_a4_proc_1
      + pi_d_a4_a7_proc_1 + 2466 pi_d_a4_a8_proc_1 + 2466 pi_d_a4_a8_proc_0
      + pi_d_a8_a4_proc_1 + pi_d_a8_a4_proc_0 + 2466 pi_d_a4_a9_proc_1
      + 2466 pi_d_a4_a9_proc_0 + pi_d_a9_a4_proc_1 + pi_d_a9_a4_proc_0
      + 2467 pi_d_a5_a6_proc_1 + 2467 pi_d_a5_a7_proc_1 + 2467 pi_d_a5_a8_proc_1
      + pi_d_a5_a8_proc_0 + 2466 pi_d_a8_a5_proc_1 + 2467 pi_d_a5_a9_proc_1
      + pi_d_a5_a9_proc_0 + 2466 pi_d_a9_a5_proc_1 + pi_d_a6_a7_proc_1
      + 2467 pi_d_a6_a8_proc_1 + 2466 pi_d_a6_a9_proc_1 + pi_d_a9_a6_proc_1
      + 2466 pi_d_a7_a8_proc_1 + pi_d_a8_a7_proc_1 + 2467 pi_d_a9_a7_proc_1
      + 2466 pi_d_a8_a9_proc_1 + 2467 pi_d_a9_a8_proc_1 + pi_d_a9_a8_proc_0
      + pi_y2_a0_proc_0 + pi_y2_a1_proc_0 + pi_y2_a2_proc_0 + pi_y2_a3_proc_0
      + pi_y2_a4_proc_1 + pi_y2_a5_proc_0 + pi_y2_a6_proc_1 + pi_y2_a7_proc_1
      + pi_y2_a8_proc_0 + pi_y2_a9_proc_0
Subject To
 c1: pi_nr_a0 + pi_nr_a1 + pi_nr_a2 + pi_nr_a3 + pi_nr_a4 + pi_nr_a5 + pi_nr_a6
     + pi_nr_a7 + pi_nr_a8 + pi_nr_a9 - pi_y1_a0 - pi_y1_a1 - pi_y1_a2
     - pi_y1_a3 - pi_y1_a4 - pi_y1_a5 - pi_y1_a6 - pi_y1_a7 - pi_y1_a8
     - pi_y1_a9 >= 1
 c2: - pi_p_a1_a0 + pi_p_a0_a8 + pi_d_a0_a1_proc_0 - pi_d_a1_a0_proc_0
     + pi_d_a0_a2_proc_0 - pi_d_a2_a0_proc_0 + pi_d_a0_a3_proc_0
     - pi_d_a3_a0_proc_0 + pi_d_a0_a4_proc_0 - pi_d_a4_a0_proc_0
     + pi_d_a0_a5_proc_0 - pi_d_a5_a0_proc_0 + pi_d_a0_a8_proc_0
     - pi_d_a8_a0_proc_0 + pi_d_a0_a9_proc_0 - pi_d_a9_a0_proc_0 >= 0
 c3: 683 pi_p_a0_a8 + 683 pi_d_a0_a1_proc_0 + 683 pi_d_a0_a2_proc_0
     + 683 pi_d_a0_a3_proc_0 + 683 pi_d_a0_a4_proc_0 + 683 pi_d_a0_a5_proc_0
     + 683 pi_d_a0_a8_proc_0 + 683 pi_d_a0_a9_proc_0 + pi_y1_a0
     + pi_y2_a0_proc_0 >= 0
 c4: pi_p_a1_a0 - pi_p_a2_a1 - pi_p_a4_a1 + pi_p_a1_a7 - pi_d_a0_a1_proc_0
     + pi_d_a1_a0_proc_0 + pi_d_a1_a2_proc_0 - pi_d_a2_a1_proc_0
     + pi_d_a1_a3_proc_0 - pi_d_a3_a1_proc_0 + pi_d_a1_a4_proc_0
     - pi_d_a4_a1_proc_0 + pi_d_a1_a5_proc_0 - pi_d_a5_a1_proc_0
     + pi_d_a1_a8_proc_0 - pi_d_a8_a1_proc_0 + pi_d_a1_a9_proc_0
     - pi_d_a9_a1_proc_0 >= 0
 c5: 616 pi_p_a1_a0 + 616 pi_p_a1_a7 + 616 pi_p_a1_a1 + 616 pi_d_a1_a0_proc_0
     + 616 pi_d_a1_a2_proc_0 + 616 pi_d_a1_a3_proc_0 + 616 pi_d_a1_a4_proc_0
     + 616 pi_d_a1_a5_proc_0 + 616 pi_d_a1_a8_proc_0 + 616 pi_d_a1_a9_proc_0
     + pi_y1_a1 + pi_y2_a1_proc_0 >= 0
 c6: pi_p_a2_a1 - pi_p_a3_a2 - pi_p_a5_a2 - pi_p_a8_a2 - pi_d_a0_a2_proc_0
     + pi_d_a2_a0_proc_0 - pi_d_a1_a2_proc_0 + pi_d_a2_a1_proc_0
     + pi_d_a2_a3_proc_1 + pi_d_a2_a3_proc_0 - pi_d_a3_a2_proc_1
     - pi_d_a3_a2_proc_0 + pi_d_a2_a4_proc_1 + pi_d_a2_a4_proc_0
     - pi_d_a4_a2_proc_1 - pi_d_a4_a2_proc_0 + pi_d_a2_a5_proc_1
     + pi_d_a2_a5_proc_0 - pi_d_a5_a2_proc_1 - pi_d_a5_a2_proc_0
     + pi_d_a2_a6_proc_1 - pi_d_a6_a2_proc_1 + pi_d_a2_a7_proc_1
     - pi_d_a7_a2_proc_1 + pi_d_a2_a8_proc_1 + pi_d_a2_a8_proc_0
     - pi_d_a8_a2_proc_1 - pi_d_a8_a2_proc_0 + pi_d_a2_a9_proc_1
     + pi_d_a2_a9_proc_0 - pi_d_a9_a2_proc_1 - pi_d_a9_a2_proc_0 >= 0
 c7: 658 pi_p_a2_a1 + 658 pi_d_a2_a0_proc_0 + 658 pi_d_a2_a1_proc_0
     + 658 pi_d_a2_a3_proc_0 + 658 pi_d_a2_a4_proc_0 + 658 pi_d_a2_a5_proc_0
     + 658 pi_d_a2_a8_proc_0 + 658 pi_d_a2_a9_proc_0 + pi_y1_a2
     + pi_y2_a2_proc_0 >= 0
 c8: 722 pi_p_a2_a1 + 722 pi_d_a2_a3_proc_1 + 722 pi_d_a2_a4_proc_1
     + 722 pi_d_a2_a5_proc_1 + 722 pi_d_a2_a6_proc_1 + 722 pi_d_a2_a7_proc_1
     + 722 pi_d_a2_a8_proc_1 + 722 pi_d_a2_a9_proc_1 + pi_y1_a2
     + pi_y2_a2_proc_1 >= 0
 c9: pi_p_a3_a2 - pi_p_a8_a3 - pi_d_a0_a3_proc_0 + pi_d_a3_a0_proc_0
     - pi_d_a1_a3_proc_0 + pi_d_a3_a1_proc_0 - pi_d_a2_a3_proc_1
     - pi_d_a2_a3_proc_0 + pi_d_a3_a2_proc_1 + pi_d_a3_a2_proc_0
     + pi_d_a3_a4_proc_1 + pi_d_a3_a4_proc_0 - pi_d_a4_a3_proc_1
     - pi_d_a4_a3_proc_0 + pi_d_a3_a5_proc_1 + pi_d_a3_a5_proc_0
     - pi_d_a5_a3_proc_1 - pi_d_a5_a3_proc_0 + pi_d_a3_a6_proc_1
     - pi_d_a6_a3_proc_1 + pi_d_a3_a7_proc_1 - pi_d_a7_a3_proc_1
     + pi_d_a3_a8_proc_1 + pi_d_a3_a8_proc_0 - pi_d_a8_a3_proc_1
     - pi_d_a8_a3_proc_0 + pi_d_a3_a9_proc_1 + pi_d_a3_a9_proc_0
     - pi_d_a9_a3_proc_1 - pi_d_a9_a3_proc_0 >= 0
 c10: 869 pi_p_a3_a2 + 869 pi_d_a3_a0_proc_0 + 869 pi_d_a3_a1_proc_0
      + 869 pi_d_a3_a2_proc_0 + 869 pi_d_a3_a4_proc_0 + 869 pi_d_a3_a5_proc_0
      + 869 pi_d_a3_a8_proc_0 + 869 pi_d_a3_a9_proc_0 + pi_y1_a3
      + pi_y2_a3_proc_0 >= 0
 c11: 833 pi_p_a3_a2 + 833 pi_d_a3_a2_proc_1 + 833 pi_d_a3_a4_proc_1
      + 833 pi_d_a3_a5_proc_1 + 833 pi_d_a3_a6_proc_1 + 833 pi_d_a3_a7_proc_1
      + 833 pi_d_a3_a8_proc_1 + 833 pi_d_a3_a9_proc_1 + pi_y1_a3
      + pi_y2_a3_proc_1 >= 0
 c12: pi_p_a4_a1 - pi_p_a7_a4 - pi_d_a0_a4_proc_0 + pi_d_a4_a0_proc_0
      - pi_d_a1_a4_proc_0 + pi_d_a4_a1_proc_0 - pi_d_a2_a4_proc_1
      - pi_d_a2_a4_proc_0 + pi_d_a4_a2_proc_1 + pi_d_a4_a2_proc_0
      - pi_d_a3_a4_proc_1 - pi_d_a3_a4_proc_0 + pi_d_a4_a3_proc_1
      + pi_d_a4_a3_proc_0 + pi_d_a4_a5_proc_1 + pi_d_a4_a5_proc_0
      - pi_d_a5_a4_proc_1 - pi_d_a5_a4_proc_0 + pi_d_a4_a6_proc_1
      - pi_d_a6_a4_proc_1 + pi_d_a4_a7_proc_1 - pi_d_a7_a4_proc_1
      + pi_d_a4_a8_proc_1 + pi_d_a4_a8_proc_0 - pi_d_a8_a4_proc_1
      - pi_d_a8_a4_proc_0 + pi_d_a4_a9_proc_1 + pi_d_a4_a9_proc_0
      - pi_d_a9_a4_proc_1 - pi_d_a9_a4_proc_0 >= 0
 c13: 817 pi_p_a4_a1 + 817 pi_d_a4_a0_proc_0 + 817 pi_d_a4_a1_proc_0
      + 817 pi_d_a4_a2_proc_0 + 817 pi_d_a4_a3_proc_0 + 817 pi_d_a4_a5_proc_0
      + 817 pi_d_a4_a8_proc_0 + 817 pi_d_a4_a9_proc_0 + pi_y1_a4
      + pi_y2_a4_proc_0 >= 0
 c14: 839 pi_p_a4_a1 + 839 pi_d_a4_a2_proc_1 + 839 pi_d_a4_a3_proc_1
      + 839 pi_d_a4_a5_proc_1 + 839 pi_d_a4_a6_proc_1 + 839 pi_d_a4_a7_proc_1
      + 839 pi_d_a4_a8_proc_1 + 839 pi_d_a4_a9_proc_1 + pi_y1_a4
      + pi_y2_a4_proc_1 >= 0
 c15: pi_p_a5_a2 - pi_p_a6_a5 + pi_p_a5_a8 - pi_d_a0_a5_proc_0
      + pi_d_a5_a0_proc_0 - pi_d_a1_a5_proc_0 + pi_d_a5_a1_proc_0
      - pi_d_a2_a5_proc_1 - pi_d_a2_a5_proc_0 + pi_d_a5_a2_proc_1
      + pi_d_a5_a2_proc_0 - pi_d_a3_a5_proc_1 - pi_d_a3_a5_proc_0
      + pi_d_a5_a3_proc_1 + pi_d_a5_a3_proc_0 - pi_d_a4_a5_proc_1
      - pi_d_a4_a5_proc_0 + pi_d_a5_a4_proc_1 + pi_d_a5_a4_proc_0
      + pi_d_a5_a6_proc_1 - pi_d_a6_a5_proc_1 + pi_d_a5_a7_proc_1
      - pi_d_a7_a5_proc_1 + pi_d_a5_a8_proc_1 + pi_d_a5_a8_proc_0
      - pi_d_a8_a5_proc_1 - pi_d_a8_a5_proc_0 + pi_d_a5_a9_proc_1
      + pi_d_a5_a9_proc_0 - pi_d_a9_a5_proc_1 - pi_d_a9_a5_proc_0 >= 0
 c16: 688 pi_p_a5_a2 + 688 pi_p_a5_a8 + 688 pi_d_a5_a0_proc_0
      + 688 pi_d_a5_a1_proc_0 + 688 pi_d_a5_a2_proc_0 + 688 pi_d_a5_a3_proc_0
      + 688 pi_d_a5_a4_proc_0 + 688 pi_d_a5_a8_proc_0 + 688 pi_d_a5_a9_proc_0
      + pi_y1_a5 + pi_y2_a5_proc_0 >= 0
 c17: 1010 pi_p_a5_a2 + 1010 pi_p_a5_a8 + 1010 pi_d_a5_a2_proc_1
      + 1010 pi_d_a5_a3_proc_1 + 1010 pi_d_a5_a4_proc_1 + 1010 pi_d_a5_a6_proc_1
      + 1010 pi_d_a5_a7_proc_1 + 1010 pi_d_a5_a8_proc_1 + 1010 pi_d_a5_a9_proc_1
      + pi_y1_a5 + pi_y2_a5_proc_1 >= 0
 c18: pi_p_a6_a5 - pi_p_a9_a6 + pi_p_a6_a8 - pi_d_a2_a6_proc_1
      + pi_d_a6_a2_proc_1 - pi_d_a3_a6_proc_1 + pi_d_a6_a3_proc_1
      - pi_d_a4_a6_proc_1 + pi_d_a6_a4_proc_1 - pi_d_a5_a6_proc_1
      + pi_d_a6_a5_proc_1 + pi_d_a6_a7_proc_1 - pi_d_a7_a6_proc_1
      + pi_d_a6_a8_proc_1 - pi_d_a8_a6_proc_1 + pi_d_a6_a9_proc_1
      - pi_d_a9_a6_proc_1 >= 0
 c19: 1170 pi_p_a6_a5 + 1170 pi_p_a6_a8 + 1170 pi_d_a6_a2_proc_1
      + 1170 pi_d_a6_a3_proc_1 + 1170 pi_d_a6_a4_proc_1 + 1170 pi_d_a6_a5_proc_1
      + 1170 pi_d_a6_a7_proc_1 + 1170 pi_d_a6_a8_proc_1 + 1170 pi_d_a6_a9_proc_1
      + pi_y1_a6 + pi_y2_a6_proc_1 >= 0
 c20: pi_p_a7_a4 - pi_p_a1_a7 - pi_d_a2_a7_proc_1 + pi_d_a7_a2_proc_1
      - pi_d_a3_a7_proc_1 + pi_d_a7_a3_proc_1 - pi_d_a4_a7_proc_1
      + pi_d_a7_a4_proc_1 - pi_d_a5_a7_proc_1 + pi_d_a7_a5_proc_1
      - pi_d_a6_a7_proc_1 + pi_d_a7_a6_proc_1 + pi_d_a7_a8_proc_1
      - pi_d_a8_a7_proc_1 + pi_d_a7_a9_proc_1 - pi_d_a9_a7_proc_1 >= 0
 c21: 922 pi_p_a7_a4 + 922 pi_d_a7_a2_proc_1 + 922 pi_d_a7_a3_proc_1
      + 922 pi_d_a7_a4_proc_1 + 922 pi_d_a7_a5_proc_1 + 922 pi_d_a7_a6_proc_1
      + 922 pi_d_a7_a8_proc_1 + 922 pi_d_a7_a9_proc_1 + pi_y1_a7
      + pi_y2_a7_proc_1 >= 0
 c22: pi_p_a8_a3 - pi_p_a5_a8 - pi_p_a0_a8 + pi_p_a8_a9 - pi_p_a6_a8
      + pi_p_a8_a2 - pi_d_a0_a8_proc_0 + pi_d_a8_a0_proc_0 - pi_d_a1_a8_proc_0
      + pi_d_a8_a1_proc_0 - pi_d_a2_a8_proc_1 - pi_d_a2_a8_proc_0
      + pi_d_a8_a2_proc_1 + pi_d_a8_a2_proc_0 - pi_d_a3_a8_proc_1
      - pi_d_a3_a8_proc_0 + pi_d_a8_a3_proc_1 + pi_d_a8_a3_proc_0
      - pi_d_a4_a8_proc_1 - pi_d_a4_a8_proc_0 + pi_d_a8_a4_proc_1
      + pi_d_a8_a4_proc_0 - pi_d_a5_a8_proc_1 - pi_d_a5_a8_proc_0
      + pi_d_a8_a5_proc_1 + pi_d_a8_a5_proc_0 - pi_d_a6_a8_proc_1
      + pi_d_a8_a6_proc_1 - pi_d_a7_a8_proc_1 + pi_d_a8_a7_proc_1
      + pi_d_a8_a9_proc_1 + pi_d_a8_a9_proc_0 - pi_d_a9_a8_proc_1
      - pi_d_a9_a8_proc_0 >= 0
 c23: 574 pi_p_a8_a3 + 574 pi_p_a8_a9 + 574 pi_p_a8_a2 + 574 pi_d_a8_a0_proc_0
      + 574 pi_d_a8_a1_proc_0 + 574 pi_d_a8_a2_proc_0 + 574 pi_d_a8_a3_proc_0
      + 574 pi_d_a8_a4_proc_0 + 574 pi_d_a8_a5_proc_0 + 574 pi_d_a8_a9_proc_0
      + pi_y1_a8 + pi_y2_a8_proc_0 >= 0
 c24: 1002 pi_p_a8_a3 + 1002 pi_p_a8_a9 + 1002 pi_p_a8_a2
      + 1002 pi_d_a8_a2_proc_1 + 1002 pi_d_a8_a3_proc_1 + 1002 pi_d_a8_a4_proc_1
      + 1002 pi_d_a8_a5_proc_1 + 1002 pi_d_a8_a6_proc_1 + 1002 pi_d_a8_a7_proc_1
      + 1002 pi_d_a8_a9_proc_1 + pi_y1_a8 + pi_y2_a8_proc_1 >= 0
 c25: pi_p_a9_a6 - pi_p_a8_a9 - pi_d_a0_a9_proc_0 + pi_d_a9_a0_proc_0
      - pi_d_a1_a9_proc_0 + pi_d_a9_a1_proc_0 - pi_d_a2_a9_proc_1
      - pi_d_a2_a9_proc_0 + pi_d_a9_a2_proc_1 + pi_d_a9_a2_proc_0
      - pi_d_a3_a9_proc_1 - pi_d_a3_a9_proc_0 + pi_d_a9_a3_proc_1
      + pi_d_a9_a3_proc_0 - pi_d_a4_a9_proc_1 - pi_d_a4_a9_proc_0
      + pi_d_a9_a4_proc_1 + pi_d_a9_a4_proc_0 - pi_d_a5_a9_proc_1
      - pi_d_a5_a9_proc_0 + pi_d_a9_a5_proc_1 + pi_d_a9_a5_proc_0
      - pi_d_a6_a9_proc_1 + pi_d_a9_a6_proc_1 - pi_d_a7_a9_proc_1
      + pi_d_a9_a7_proc_1 - pi_d_a8_a9_proc_1 - pi_d_a8_a9_proc_0
      + pi_d_a9_a8_proc_1 + pi_d_a9_a8_proc_0 >= 0
 c26: 671 pi_p_a9_a6 + 671 pi_d_a9_a0_proc_0 + 671 pi_d_a9_a1_proc_0
      + 671 pi_d_a9_a2_proc_0 + 671 pi_d_a9_a3_proc_0 + 671 pi_d_a9_a4_proc_0
      + 671 pi_d_a9_a5_proc_0 + 671 pi_d_a9_a8_proc_0 + pi_y1_a9
      + pi_y2_a9_proc_0 >= 0
 c27: 1233 pi_p_a9_a6 + 1233 pi_d_a9_a2_proc_1 + 1233 pi_d_a9_a3_proc_1
      + 1233 pi_d_a9_a4_proc_1 + 1233 pi_d_a9_a5_proc_1 + 1233 pi_d_a9_a6_proc_1
      + 1233 pi_d_a9_a7_proc_1 + 1233 pi_d_a9_a8_proc_1 + pi_y1_a9
      + pi_y2_a9_proc_1 >= 0

Bounds
       pi_y1_a0 Free
       pi_y1_a1 Free
       pi_y1_a2 Free
       pi_y1_a3 Free
       pi_y1_a4 Free
       pi_y1_a5 Free
       pi_y1_a6 Free
       pi_y1_a7 Free
       pi_y1_a8 Free
       pi_y1_a9 Free
End
