benchmark/results/graph__10-1000-0.10-02_19/graph__10-1000-0.10-02_19_Quinton_Benders_sub.txt
solution for: Quinton Benders_dual_sub
objective: 0.000197628
status: OPTIMAL_SOLUTION(2)
pi_p_a1_a0=0.000
pi_p_a6_a5=0.000
pi_p_a9_a6=0.000
pi_p_a0_a8=0.000
pi_d_a2_a1_proc_0=0.000
pi_d_a5_a2_proc_0=0.000
pi_d_a8_a9_proc_0=0.000
pi_y1_a0=-0.135
pi_y1_a1=-0.122
pi_y1_a2=-0.130
pi_y1_a5=-0.136
pi_y1_a6=-0.231
pi_y1_a8=-0.113
pi_y1_a9=-0.133
pi_y2_a2_proc_1=0.130
pi_y2_a5_proc_1=0.136
pi_y2_a8_proc_1=0.113
